rehearsal = [[0,0,0,0,1,1,0,0,1,0], [0,0,0,0,0,1,1,1,0,0], [0,1,0,1,0,0,1,1,1,1], [0,0,1,1,1,1,1,1,1,1], [0,1,0,1,0,0,1,1,0,0], [0,0,1,0,1,0,0,1,0,0], [0,0,0,1,1,0,0,0,0,1], [1,0,0,1,1,1,1,1,1,0], [1,0,1,0,1,1,0,1,0,0], [0,1,0,1,0,1,1,1,1,0], [1,0,0,0,1,1,0,0,1,0], [0,0,0,1,0,0,1,1,0,1], [1,0,0,1,0,1,0,1,1,0], [0,1,1,0,1,1,1,1,1,0], [0,0,1,0,1,1,1,1,1,1], [1,0,1,1,0,0,0,0,1,0], [1,0,0,0,1,0,0,0,1,0], [1,0,0,1,1,0,1,1,0,0], [0,0,1,0,0,1,1,1,0,1], [1,1,1,0,0,0,1,1,1,0], [0,0,1,0,0,0,1,0,0,1], [0,0,1,0,1,0,1,1,1,1], [0,1,1,0,1,0,0,0,1,0], [1,0,1,0,1,0,1,0,1,0], [1,1,1,0,1,0,0,0,0,0], [1,1,1,0,1,0,1,1,1,1], [0,0,0,1,1,1,1,1,0,1], [1,1,0,1,0,1,0,0,1,1], [1,1,1,0,1,1,0,0,0,0], [1,0,0,1,1,1,1,1,0,0], [0,1,1,1,0,1,0,0,1,0], [1,0,1,0,1,1,0,1,0,0], [1,1,1,0,1,0,0,0,0,1], [1,1,1,0,1,0,1,1,1,0], [0,0,1,0,0,0,1,1,0,1], [1,1,0,1,1,0,1,1,0,1], [1,1,0,0,0,0,1,1,0,0], [0,0,1,0,1,0,1,0,1,0], [0,1,1,1,0,1,1,0,0,0], [0,0,0,0,0,1,0,0,0,1], [1,1,0,1,1,0,1,1,1,1], [1,1,1,0,1,0,0,1,1,1], [1,0,1,0,1,0,1,0,0,1], [0,1,0,1,1,1,0,1,1,1], [0,1,0,0,0,1,1,1,1,1], [0,0,0,0,1,0,1,1,1,1], [1,1,1,1,0,1,0,0,0,1], [0,1,0,1,1,1,1,0,0,0], [0,1,0,1,1,1,0,1,1,0], [0,1,0,1,1,1,1,1,1,1]];
permutations = [3,9,1,5,2,7,10,8,4,6];